WARNING: for repeatability, setting FPU to use double precision
============================[ Problem Statistics ]=============================
|                                                                             |
|  Number of variables:            50                                         |
|  Number of clauses:             218                                         |
|  Parse time:                   0.00 s                                       |
|                                                                             |
============================[ Search Statistics ]==============================
| Conflicts |          ORIGINAL         |          LEARNT          | Progress |
|           |    Vars  Clauses Literals |    Limit  Clauses Lit/Cl |          |
===============================================================================
===============================================================================
restarts              : 1
conflicts             : 81             (106439 /sec)
decisions             : 98             (0.00 % random) (128778 /sec)
propagations          : 976            (1282523 /sec)
conflict literals     : 317            (15.69 % deleted)
Memory used           : 20.00 MB
CPU time              : 0.000761 s

UNSATISFIABLE
